p tw 41 4101 2 
1 4 
1 6 
1 8 
1 10 
1 12 
1 14 
1 16 
1 18 
1 20 
1 22 
1 24 
1 26 
1 28 
1 30 
1 32 
1 34 
1 36 
1 38 
1 40 
2 3 
2 5 
2 10 
2 11 
2 12 
2 15 
2 16 
2 17 
2 19 
2 20 
2 21 
2 22 
2 24 
2 28 
2 31 
2 32 
2 34 
2 35 
2 37 
3 5 
3 7 
3 8 
3 9 
3 10 
3 14 
3 15 
3 19 
3 24 
3 26 
3 27 
3 28 
3 30 
3 31 
3 34 
3 37 
3 39 
3 40 
3 41 
4 5 
4 7 
4 12 
4 13 
4 14 
4 17 
4 18 
4 19 
4 21 
4 22 
4 23 
4 24 
4 26 
4 30 
4 33 
4 34 
4 36 
4 37 
4 39 
5 7 
5 9 
5 10 
5 11 
5 12 
5 16 
5 17 
5 21 
5 26 
5 28 
5 29 
5 30 
5 32 
5 33 
5 36 
5 39 
5 41 
6 7 
6 9 
6 14 
6 15 
6 16 
6 19 
6 20 
6 21 
6 23 
6 24 
6 25 
6 26 
6 28 
6 32 
6 35 
6 36 
6 38 
6 39 
6 41 
7 9 
7 11 
7 12 
7 13 
7 14 
7 18 
7 19 
7 23 
7 28 
7 30 
7 31 
7 32 
7 34 
7 35 
7 38 
7 41 
8 9 
8 11 
8 16 
8 17 
8 18 
8 21 
8 22 
8 23 
8 25 
8 26 
8 27 
8 28 
8 30 
8 34 
8 37 
8 38 
8 40 
8 41 
9 11 
9 13 
9 14 
9 15 
9 16 
9 20 
9 21 
9 25 
9 30 
9 32 
9 33 
9 34 
9 36 
9 37 
9 40 
10 11 
10 13 
10 18 
10 19 
10 20 
10 23 
10 24 
10 25 
10 27 
10 28 
10 29 
10 30 
10 32 
10 36 
10 39 
10 40 
11 13 
11 15 
11 16 
11 17 
11 18 
11 22 
11 23 
11 27 
11 32 
11 34 
11 35 
11 36 
11 38 
11 39 
12 13 
12 15 
12 20 
12 21 
12 22 
12 25 
12 26 
12 27 
12 29 
12 30 
12 31 
12 32 
12 34 
12 38 
12 41 
13 15 
13 17 
13 18 
13 19 
13 20 
13 24 
13 25 
13 29 
13 34 
13 36 
13 37 
13 38 
13 40 
13 41 
14 15 
14 17 
14 22 
14 23 
14 24 
14 27 
14 28 
14 29 
14 31 
14 32 
14 33 
14 34 
14 36 
14 40 
15 17 
15 19 
15 20 
15 21 
15 22 
15 26 
15 27 
15 31 
15 36 
15 38 
15 39 
15 40 
16 17 
16 19 
16 24 
16 25 
16 26 
16 29 
16 30 
16 31 
16 33 
16 34 
16 35 
16 36 
16 38 
17 19 
17 21 
17 22 
17 23 
17 24 
17 28 
17 29 
17 33 
17 38 
17 40 
17 41 
18 19 
18 21 
18 26 
18 27 
18 28 
18 31 
18 32 
18 33 
18 35 
18 36 
18 37 
18 38 
18 40 
19 21 
19 23 
19 24 
19 25 
19 26 
19 30 
19 31 
19 35 
19 40 
20 21 
20 23 
20 28 
20 29 
20 30 
20 33 
20 34 
20 35 
20 37 
20 38 
20 39 
20 40 
21 23 
21 25 
21 26 
21 27 
21 28 
21 32 
21 33 
21 37 
22 23 
22 25 
22 30 
22 31 
22 32 
22 35 
22 36 
22 37 
22 39 
22 40 
22 41 
23 25 
23 27 
23 28 
23 29 
23 30 
23 34 
23 35 
23 39 
24 25 
24 27 
24 32 
24 33 
24 34 
24 37 
24 38 
24 39 
24 41 
25 27 
25 29 
25 30 
25 31 
25 32 
25 36 
25 37 
25 41 
26 27 
26 29 
26 34 
26 35 
26 36 
26 39 
26 40 
26 41 
27 29 
27 31 
27 32 
27 33 
27 34 
27 38 
27 39 
28 29 
28 31 
28 36 
28 37 
28 38 
28 41 
29 31 
29 33 
29 34 
29 35 
29 36 
29 40 
29 41 
30 31 
30 33 
30 38 
30 39 
30 40 
31 33 
31 35 
31 36 
31 37 
31 38 
32 33 
32 35 
32 40 
32 41 
33 35 
33 37 
33 38 
33 39 
33 40 
34 35 
34 37 
35 37 
35 39 
35 40 
35 41 
36 37 
36 39 
37 39 
37 41 
38 39 
38 41 
39 41 
40 41 
